NB_EMPLOYES = 4;

RANGS_EMPLOYES = [| 1, 2, 3, 4,
	| 1, 2, 3, 4,
	| 1, 2, 3, 4,
	| 1, 2, 3, 4|];

NB_POSTES = 4;

RANGS_POSTES = [| 2, 1, 3, 4,
	| 1, 2, 3, 4,
	| 3, 4, 1, 2,
	| 4, 1, 2, 3|];